% seed = 2883066

mint = 52;
% maxt = 107;

nActs = 22;
dur = [0,5,1,9,1,8,5,7,5,5,9,1,3,7,9,3,5,8,7,8,1,0];

nSkills = 4;
sreq = [| 0,0,0,0,
	| 2,0,3,1,
	| 2,0,3,1,
	| 1,0,1,1,
	| 3,1,0,1,
	| 1,3,0,3,
	| 1,1,2,0,
	| 0,2,3,2,
	| 3,2,3,0,
	| 1,0,2,3,
	| 3,0,3,1,
	| 1,0,3,2,
	| 0,3,3,1,
	| 1,1,0,2,
	| 3,2,0,3,
	| 1,1,0,3,
	| 1,0,3,1,
	| 3,0,3,2,
	| 2,1,1,0,
	| 1,3,0,3,
	| 2,2,0,3,
	| 0,0,0,0, |];

nResources = 20;
mastery = [| false,false,false,true,
	| false,true,true,false,
	| true,false,true,true,
	| true,true,false,true,
	| false,true,true,true,
	| false,true,true,false,
	| false,true,false,true,
	| false,false,true,false,
	| true,true,true,false,
	| false,true,true,false,
	| true,true,true,false,
	| false,true,false,false,
	| false,true,false,true,
	| true,true,true,false,
	| false,true,true,false,
	| true,true,false,false,
	| true,true,true,false,
	| true,false,true,true,
	| true,true,true,false,
	| true,false,true,true, |];

nPrecs = 37;
pred = [1,1,1,2,2,2,3,3,4,4,4,5,5,6,7,7,8,8,9,9,10,11,11,12,12,12,13,14,15,16,17,17,17,18,19,20,21];
succ = [2,3,4,9,6,15,11,14,5,6,7,10,11,8,9,13,12,14,21,16,15,12,15,19,13,16,20,17,17,18,18,19,21,20,22,22,22];

nUnrels = 71;
unpred = [2,2,2,2,2,2,3,3,3,3,3,3,3,5,5,5,5,5,6,6,6,6,6,7,7,7,7,7,7,7,7,8,8,8,8,9,9,9,9,9,9,9,9,10,10,10,10,10,11,12,12,12,12,13,13,13,13,13,13,13,14,14,15,16,16,16,18,18,19,19,20];
unsucc = [3,4,5,7,10,11,4,5,6,7,8,9,10,6,7,8,9,14,7,9,10,11,15,8,10,11,12,14,15,17,19,9,10,11,15,10,11,12,13,14,15,17,19,11,12,13,14,16,14,14,15,17,21,14,15,16,17,18,19,21,15,16,16,17,19,21,19,21,20,21,21];

USEFUL_RES = [{},
	{1,2,3,4,5,6,7,8,9,10,11,13,14,15,16,17,18,19,20},
	{1,2,3,4,5,6,7,8,9,10,11,13,14,15,16,17,18,19,20},
	{1,2,3,4,5,6,7,8,9,10,11,13,14,15,16,17,18,19,20},
	{1,2,3,4,5,6,7,9,10,11,12,13,14,15,16,17,18,19,20},
	{1,2,3,4,5,6,7,9,10,11,12,13,14,15,16,17,18,19,20},
	{2,3,4,5,6,7,8,9,10,11,12,13,14,15,16,17,18,19,20},
	{1,2,3,4,5,6,7,8,9,10,11,12,13,14,15,16,17,18,19,20},
	{2,3,4,5,6,7,8,9,10,11,12,13,14,15,16,17,18,19,20},
	{1,2,3,4,5,6,7,8,9,10,11,13,14,15,16,17,18,19,20},
	{1,2,3,4,5,6,7,8,9,10,11,13,14,15,16,17,18,19,20},
	{1,2,3,4,5,6,7,8,9,10,11,13,14,15,16,17,18,19,20},
	{1,2,3,4,5,6,7,8,9,10,11,12,13,14,15,16,17,18,19,20},
	{1,2,3,4,5,6,7,9,10,11,12,13,14,15,16,17,18,19,20},
	{1,2,3,4,5,6,7,9,10,11,12,13,14,15,16,17,18,19,20},
	{1,2,3,4,5,6,7,9,10,11,12,13,14,15,16,17,18,19,20},
	{1,2,3,4,5,6,7,8,9,10,11,13,14,15,16,17,18,19,20},
	{1,2,3,4,5,6,7,8,9,10,11,13,14,15,16,17,18,19,20},
	{2,3,4,5,6,7,8,9,10,11,12,13,14,15,16,17,18,19,20},
	{1,2,3,4,5,6,7,9,10,11,12,13,14,15,16,17,18,19,20},
	{1,2,3,4,5,6,7,9,10,11,12,13,14,15,16,17,18,19,20},
	{}];

POTENTIAL_ACT = [{2,3,4,5,6,8,10,11,12,13,14,15,16,17,18,20,21},
	{2,3,4,5,6,7,8,9,10,11,12,13,14,15,16,17,18,19,20,21},
	{2,3,4,5,6,7,8,9,10,11,12,13,14,15,16,17,18,19,20,21},
	{2,3,4,5,6,7,8,9,10,11,12,13,14,15,16,17,18,19,20,21},
	{2,3,4,5,6,7,8,9,10,11,12,13,14,15,16,17,18,19,20,21},
	{2,3,4,5,6,7,8,9,10,11,12,13,14,15,16,17,18,19,20,21},
	{2,3,4,5,6,7,8,9,10,11,12,13,14,15,16,17,18,19,20,21},
	{2,3,4,7,8,9,10,11,12,13,17,18,19},
	{2,3,4,5,6,7,8,9,10,11,12,13,14,15,16,17,18,19,20,21},
	{2,3,4,5,6,7,8,9,10,11,12,13,14,15,16,17,18,19,20,21},
	{2,3,4,5,6,7,8,9,10,11,12,13,14,15,16,17,18,19,20,21},
	{5,6,7,8,9,13,14,15,16,19,20,21},
	{2,3,4,5,6,7,8,9,10,11,12,13,14,15,16,17,18,19,20,21},
	{2,3,4,5,6,7,8,9,10,11,12,13,14,15,16,17,18,19,20,21},
	{2,3,4,5,6,7,8,9,10,11,12,13,14,15,16,17,18,19,20,21},
	{2,3,4,5,6,7,8,9,10,11,12,13,14,15,16,17,18,19,20,21},
	{2,3,4,5,6,7,8,9,10,11,12,13,14,15,16,17,18,19,20,21},
	{2,3,4,5,6,7,8,9,10,11,12,13,14,15,16,17,18,19,20,21},
	{2,3,4,5,6,7,8,9,10,11,12,13,14,15,16,17,18,19,20,21},
	{2,3,4,5,6,7,8,9,10,11,12,13,14,15,16,17,18,19,20,21}];
